solution status: time limit reached
objective value:                     40.9999998153289
shell_i_$_165                                       1 	(obj:0)
shell_i_$_78                                        1 	(obj:0)
shell_i_$_166                                       1 	(obj:0)
shell_j_$_163                                       1 	(obj:0)
shell_i_$_164                                       1 	(obj:0)
shell_i_$_167                                       1 	(obj:0)
shell_i_$_79                                        1 	(obj:0)
shell_i_$_82                                        1 	(obj:0)
shell_j_$_147                                       1 	(obj:0)
shell_i_$_103                                       1 	(obj:0)
shell_i_$_71                                        1 	(obj:0)
shell_i_$_73                                        1 	(obj:0)
shell_i_$_134                                       1 	(obj:0)
shell_i_$_153                                       1 	(obj:0)
shell_i_$_169                                       1 	(obj:0)
shell_i_$_148                                       1 	(obj:0)
shell_i_$_186                                       1 	(obj:0)
shell_i_$_70                                        1 	(obj:0)
shell_i_$_92                                        1 	(obj:0)
shell_j_$_187                                       1 	(obj:0)
shell_i_$_84                                        1 	(obj:0)
shell_i_$_94                                        1 	(obj:0)
shell_j_$_90                                        1 	(obj:0)
shell_j_$_72                                        1 	(obj:0)
shell_i_$_88                                        1 	(obj:0)
shell_j_$_74                                        1 	(obj:0)
shell_i_$_179                                       1 	(obj:0)
shell_j_$_150                                       1 	(obj:0)
shell_i_$_105                                       1 	(obj:0)
shell_j_$_105                                       1 	(obj:0)
shell_i_$_96                                        1 	(obj:0)
shell_j_$_181                                       1 	(obj:0)
shell_i_$_151                                       1 	(obj:0)
shell_i_$_130                                       1 	(obj:0)
shell_j_$_76                                        1 	(obj:0)
shell_i_$_89                                        1 	(obj:0)
shell_i_$_133                                       1 	(obj:0)
shell_j_$_149                                       1 	(obj:0)
shell_i_$_185                                       1 	(obj:0)
shell_i_$_91                                        1 	(obj:0)
shell_i_$_131                                       1 	(obj:0)
shell_i_$_132                                       1 	(obj:0)
shell_i_$_75                                        1 	(obj:0)
shell_i_$_93                                        1 	(obj:0)
shell_i_$_135                                       1 	(obj:0)
shell_i_$_152                                       1 	(obj:0)
shell_i_$_136                                       1 	(obj:0)
shell_i_$_180                                       1 	(obj:0)
shell_i_$_97                                        1 	(obj:0)
shell_i_$_168                                       1 	(obj:0)
$_78_x                                              8 	(obj:0)
$_163_x                                             6 	(obj:0)
$_84_x                                              8 	(obj:0)
$_84_y                            2.9822772663631e-09 	(obj:0)
$_84_z                                             19 	(obj:0)
$_147_x                                             8 	(obj:0)
$_147_y                                             8 	(obj:0)
$_94_x                                              8 	(obj:0)
$_94_y                              -7.00000000642339 	(obj:0)
$_94_z                                              4 	(obj:0)
$_147_z                                            21 	(obj:0)
$_163_y                                             8 	(obj:0)
$_90_x                                              4 	(obj:0)
$_90_y                                             -8 	(obj:0)
$_90_z                                              3 	(obj:0)
$_163_z                                            19 	(obj:0)
$_103_x                                             8 	(obj:0)
$_72_x                                              4 	(obj:0)
$_72_y                                             -8 	(obj:0)
$_72_z                                              2 	(obj:0)
$_103_y                                             4 	(obj:0)
$_103_z                                            16 	(obj:0)
$_88_x                                              8 	(obj:0)
$_88_y                                              4 	(obj:0)
$_88_z                                             19 	(obj:0)
$_78_y                                             -4 	(obj:0)
$_78_z                                              5 	(obj:0)
$_74_x                                              8 	(obj:0)
$_74_y                                             -8 	(obj:0)
$_71_x                                              8 	(obj:0)
$_71_y                                              6 	(obj:0)
$_179_x                                             8 	(obj:0)
$_179_y                                             5 	(obj:0)
$_179_z                                            19 	(obj:0)
$_71_z                                             21 	(obj:0)
$_164_x                                             8 	(obj:0)
$_150_x                                             8 	(obj:0)
$_150_y                                             8 	(obj:0)
$_150_z                                            23 	(obj:0)
$_164_y                                             7 	(obj:0)
$_73_x                                              8 	(obj:0)
$_105_x                                             8 	(obj:0)
$_105_y                                             8 	(obj:0)
$_105_z                                            16 	(obj:0)
$_73_y                              -6.99999997957045 	(obj:0)
$_73_z                                              1 	(obj:0)
$_96_x                                              8 	(obj:0)
$_96_y                                             -4 	(obj:0)
$_96_z                                              6 	(obj:0)
$_164_z                                            19 	(obj:0)
$_165_z                                            24 	(obj:0)
$_181_x                                             8 	(obj:0)
$_181_y                                             8 	(obj:0)
$_181_z                                            15 	(obj:0)
$_134_x                                             8 	(obj:0)
$_134_y                                             3 	(obj:0)
$_151_x                                             8 	(obj:0)
$_151_y                                             4 	(obj:0)
$_151_z                                            21 	(obj:0)
$_134_z                              22.9999999954321 	(obj:0)
$_165_x                                             8 	(obj:0)
$_130_x                                             8 	(obj:0)
$_130_y                                             7 	(obj:0)
$_130_z                                            23 	(obj:0)
$_167_x                                             8 	(obj:0)
$_153_x                                             8 	(obj:0)
$_76_x                                              8 	(obj:0)
$_76_y                                             -8 	(obj:0)
$_76_z                               3.00000000901838 	(obj:0)
$_153_y                                             3 	(obj:0)
$_153_z                                            19 	(obj:0)
$_89_x                                              8 	(obj:0)
$_89_z                                             25 	(obj:0)
$_167_y                                             4 	(obj:0)
$_167_z                                            18 	(obj:0)
$_133_x                                             8 	(obj:0)
$_133_y                                             5 	(obj:0)
$_133_z                                            22 	(obj:0)
$_169_x                                             8 	(obj:0)
$_169_y                                             6 	(obj:0)
$_149_x                                             8 	(obj:0)
$_149_y                                             8 	(obj:0)
$_149_z                                            24 	(obj:0)
$_169_z                                            19 	(obj:0)
$_166_x                                             8 	(obj:0)
$_185_x                                             8 	(obj:0)
$_185_z                                            11 	(obj:0)
$_166_y                                             5 	(obj:0)
$_148_x                                             8 	(obj:0)
$_91_x                                              8 	(obj:0)
$_91_y                              -6.00000001823331 	(obj:0)
$_91_z                                              2 	(obj:0)
$_148_y                                             5 	(obj:0)
$_148_z                                            23 	(obj:0)
$_131_x                                             8 	(obj:0)
$_131_y                                             4 	(obj:0)
$_131_z                                            23 	(obj:0)
$_79_x                                              8 	(obj:0)
$_79_y                                             -1 	(obj:0)
$_132_x                                             8 	(obj:0)
$_132_y                                             6 	(obj:0)
$_132_z                                            22 	(obj:0)
$_186_x                                             8 	(obj:0)
$_186_y                                            -4 	(obj:0)
$_75_x                                              8 	(obj:0)
$_75_y                                             -8 	(obj:0)
$_75_z                               1.00000001945466 	(obj:0)
$_186_z                                             7 	(obj:0)
$_79_z                                             11 	(obj:0)
$_93_x                                              8 	(obj:0)
$_93_y                                             -8 	(obj:0)
$_93_z                               2.00000001794494 	(obj:0)
$_166_z                                            25 	(obj:0)
$_70_x                                              8 	(obj:0)
$_135_x                                             8 	(obj:0)
$_135_y                                             2 	(obj:0)
$_135_z                                            19 	(obj:0)
$_70_y                                              6 	(obj:0)
$_70_z                                             23 	(obj:0)
$_152_x                                             8 	(obj:0)
$_152_y                                             4 	(obj:0)
$_152_z                                            20 	(obj:0)
$_165_y                                             4 	(obj:0)
$_82_x                                              8 	(obj:0)
$_136_x                                             8 	(obj:0)
$_136_y                                             1 	(obj:0)
$_136_z                                            19 	(obj:0)
$_92_x                                              8 	(obj:0)
$_92_y                              -7.00000002696747 	(obj:0)
$_180_x                                             8 	(obj:0)
$_180_y                                             2 	(obj:0)
$_180_z                                            24 	(obj:0)
$_92_z                                              2 	(obj:0)
$_82_y                                              1 	(obj:0)
$_97_x                                              8 	(obj:0)
$_97_y                                             -2 	(obj:0)
$_97_z                                              9 	(obj:0)
$_82_z                                             23 	(obj:0)
$_187_x                                             8 	(obj:0)
$_168_x                                             8 	(obj:0)
$_168_y                                             6 	(obj:0)
$_168_z                                            18 	(obj:0)
$_187_y                                            -8 	(obj:0)
$_187_z                                             4 	(obj:0)
x250                                 1.99999999024091 	(obj:1)
x261                                                2 	(obj:1)
x262                                                2 	(obj:1)
x264                                                2 	(obj:1)
x265                                                1 	(obj:1)
x268                                                1 	(obj:1)
x284                                                2 	(obj:1)
x285                                                2 	(obj:1)
x299                             -5.3792340127919e-09 	(obj:1)
x302                                  1.9999999854318 	(obj:1)
x310                                0.999999991045498 	(obj:1)
x313                             -8.95450242464283e-09 	(obj:1)
x314                                                2 	(obj:1)
x322                                0.999999963555274 	(obj:1)
x324                                                2 	(obj:1)
x326                                0.999999991045498 	(obj:1)
x329                                0.999999991045498 	(obj:1)
x332                                0.999999991045498 	(obj:1)
x335                                0.999999991045498 	(obj:1)
x340                                0.999999990561038 	(obj:1)
x343                                 0.99999999022318 	(obj:1)
x356                                0.999999991045498 	(obj:1)
x362                                                1 	(obj:1)
x380                                 1.99999999024091 	(obj:1)
x400                                                2 	(obj:1)
x409                                0.999999991045498 	(obj:1)
x412                                0.999999991045498 	(obj:1)
x418                                                2 	(obj:1)
x437                             -8.95450242464283e-09 	(obj:1)
x451                                                2 	(obj:1)
x452                                                1 	(obj:1)
